20	30	10	15	15
25	40	15	20	15
30	40	15	20	20
40	45	20	20	25
60	90	30	45	70
100	140	50	70	100
180	210	90	105	150
210	250	105	125	160
150	170	75	85	140
60	60	30	30	70
30	40	15	20	40
20	25	10	15	20
20	30	10	15	15
25	40	15	20	15
30	40	15	20	20
40	45	20	20	25
60	90	30	45	70
100	140	50	70	100
180	210	90	105	150
210	250	105	125	160
150	170	75	85	140
60	60	30	30	70
30	40	15	20	40
20	25	10	15	20